30
1 0 1
2 1 1
4 3 1
5 0 1
5 1 3
5 2 1
6 1 3
6 2 1
6 5 2
7 0 3
7 2 1
7 3 3
7 4 1
8 1 2
8 2 2
8 3 2
8 7 2
9 0 1
9 1 1
9 4 2
9 5 1
9 6 1
10 1 2
10 5 2
10 7 1
10 9 3
11 0 2
11 1 3
11 5 2
11 6 1
11 7 1
11 9 1
12 4 3
12 9 1
12 11 1
13 0 3
13 4 3
13 12 3
14 2 1
14 3 2
14 5 2
15 2 1
15 3 3
15 5 1
15 6 2
15 7 1
15 9 3
15 10 3
15 11 2
15 12 1
15 13 1
15 14 1
16 3 3
16 5 3
16 6 2
16 7 1
16 8 1
16 9 2
16 13 3
16 14 2
16 15 1
17 1 3
17 2 1
17 4 3
17 6 2
17 7 1
17 8 2
17 9 2
17 10 2
17 12 1
17 15 2
17 16 3
18 1 1
18 2 1
18 3 1
18 4 2
18 5 3
18 6 3
18 8 2
18 11 2
18 13 3
18 14 3
18 15 1
18 17 3
19 0 1
19 2 3
19 3 1
19 5 1
19 6 2
19 7 3
19 10 3
19 13 3
19 14 3
19 17 2
19 18 2
20 1 3
20 2 1
20 3 2
20 4 3
20 5 3
20 11 2
20 13 1
20 14 3
20 15 3
21 0 2
21 1 1
21 3 3
21 5 1
21 6 1
21 8 3
21 10 1
21 12 3
21 13 2
21 17 2
21 18 2
21 19 1
22 0 3
22 6 1
22 8 3
22 10 1
22 12 3
22 14 2
22 17 1
22 19 1
22 20 2
23 2 1
23 5 1
23 6 3
23 8 2
23 12 1
23 13 1
23 14 2
23 16 2
23 18 3
23 19 1
24 2 1
24 4 1
24 6 3
24 7 1
24 10 1
24 14 1
24 16 2
24 17 1
24 19 1
24 22 1
25 2 1
25 3 3
25 6 3
25 7 1
25 9 1
25 10 2
25 11 3
25 13 1
25 14 1
25 15 2
25 17 2
25 18 2
25 19 1
25 21 3
26 1 1
26 2 3
26 3 3
26 4 1
26 5 3
26 8 3
26 10 3
26 13 2
26 16 1
26 17 3
26 18 2
26 21 3
26 22 2
26 23 2
26 24 1
27 3 2
27 5 1
27 6 2
27 7 2
27 8 1
27 9 3
27 10 3
27 13 3
27 14 2
27 19 3
27 20 3
27 22 3
27 23 1
27 25 1
28 0 2
28 1 3
28 4 3
28 5 3
28 8 1
28 9 3
28 11 3
28 12 3
28 15 1
28 17 1
28 20 1
28 22 2
28 23 2
28 24 1
28 25 1
28 26 3
28 27 1
29 0 2
29 1 2
29 2 3
29 3 1
29 4 2
29 6 3
29 8 2
29 10 1
29 11 2
29 12 2
29 13 2
29 16 2
29 18 1
29 19 1
29 20 1
29 21 2
29 23 3
29 25 2
